198 23840
1 16 17 18 19 20 22 23 29 32 43 42 41 40 15 14 46 52 81 93 122 154 155 156 157 158 159 139 138 131 133 134 135 136 141 137 172 183 180 178 179 198 197 196 195 194 185 184 177 181 182 127 170 126 169 125 124 123 120 119 118 121 117 116 115 104 103 102 94 101 95 96 97 98 83 82 89 90 75 62 53 65 76 77 78 64 50 51 47 39 35 48 49 63 79 91 80 92 105 114 113 112 106 107 111 110 109 108 167 168 176 175 174 173 171 128 129 130 132 140 143 142 147 146 148 152 153 161 160 162 149 145 150 144 151 163 164 165 166 190 191 192 193 186 187 188 189 21 25 24 26 27 28 30 34 33 36 37 31 38 45 54 61 66 74 88 73 70 72 68 67 60 55 44 56 59 84 87 99 100 86 85 71 69 58 57 13 12 11 10 9 8 5 4 3 6 7 2 
